32	0

0	2	2	3
3	2	4	8
2	2	4	8
4	1	5
1	2	6	7
5	3	9	10	11
5	3	9	10	11
10	3	9	10	11
1	1	12
6	2	13	15
7	2	14	15
5	2	13	15
9	2	14	16
5	3	17	19	20
9	1	16
3	3	17	19	20
4	1	18
7	2	21	22
8	2	21	22
6	2	21	22
9	1	23
8	2	23	24
4	1	25
5	1	25
9	2	26	28
6	2	27	29
2	2	30	31
10	1	31
2	2	30	31
7	1	32
6	1	32
0	0
